objective value:                                  -12
t_n_6                                               1 	(obj:-1)
t_n_120                                             1 	(obj:-1)
t_n_177                                             1 	(obj:-1)
t_n_214                                             1 	(obj:-1)
t_n_330                                             1 	(obj:-1)
t_n_614                                             1 	(obj:-1)
t_n_801                                             1 	(obj:-1)
t_n_808                                             1 	(obj:-1)
t_n_811                                             1 	(obj:-1)
t_n_894                                             1 	(obj:-1)
t_n_902                                             1 	(obj:-1)
t_n_957                                             1 	(obj:-1)
